20 10
91 46 56 4 96 96 16 15 11 42
83 54 76 44 95 81 83 21 99 19
29 99 57 17 63 12 74 7 30 55
33 85 16 72 27 87 6 22 35 4
82 33 13 53 61 58 49 9 56 28
5 13 37 94 4 97 48 16 13 29
49 26 33 6 61 99 91 41 73 17
75 48 6 65 92 93 2 68 17 57
19 74 2 38 31 74 23 73 2 91
67 56 19 53 20 43 76 64 69 42
71 42 93 26 51 74 74 40 83 47
4 79 16 83 94 41 89 83 58 57
14 33 3 88 15 36 95 77 58 82
45 56 18 83 16 75 84 62 20 59
35 67 59 4 4 48 57 66 98 21
23 81 88 28 6 22 98 37 17 33
26 44 86 91 51 44 50 10 4 49
78 32 53 27 44 43 18 83 42 26
5 82 53 9 32 17 98 41 42 17
22 92 73 40 43 15 31 44 13 14
